peakDumbCharging = 14800; 
Machine = anon_enum(16); 
machineSpeed = [3700,3700,3700,3700,3700,3700,3700,3700,3700,3700,3700,3700,3700,3700,3700,3700]; 
machineLoad = [3700,3700,3700,3700,3700,3700,3700,3700,3700,3700,3700,3700,3700,3700,3700,3700]; 
Car = anon_enum(25); 
demandCar = [8000,5160,14480,1120,23600,12480,3640,4600,12560,6680,3080,1840,9200,31800,17000,6240,7320,8160,9360,320,2480,15680,6040,13520,3400]; 
arrivalCar = [66,66,66,62,61,59,59,57,57,55,53,51,49,47,47,46,43,40,38,38,36,36,35,32,28]; 
departureCar = [69,69,71,63,69,65,62,60,62,59,55,53,53,60,53,51,50,46,46,40,39,44,38,38,32]; 
